     Program PWSCF v.5.3.0 (svn rev. 11974) starts on 30Nov2016 at 17:20:55

     Current dimensions of program PWSCF are:
     Max number of different atomic species (ntypx) = 10
     Max number of k-points (npk) =  40000
     Max angular momentum in pseudopotentials (lmaxx) =  3
               file In.pbe-dn-kjpaw_psl.0.2.2.UPF: wavefunction(s)  5S 5P renormalized
               file Sb.pbe-n-kjpaw_psl.0.3.1.UPF: wavefunction(s)  5S 5P renormalized

     Title:
     InAsBulk_PAW

     bravais-lattice index     =            0
     lattice parameter (alat)  =       1.8897  a.u.
     unit-cell volume          =    1749.6979 (a.u.)^3
     number of atoms/cell      =            8
     number of atomic types    =            3
     number of electrons       =        72.00
     number of Kohn-Sham states=           43
     kinetic-energy cutoff     =      34.5455  Ry
     charge density cutoff     =     138.1818  Ry
     convergence threshold     =      1.0E-07
     mixing beta               =       0.7000
     number of iterations used =            8  plain     mixing
     Exchange-correlation      =  SLA  PW   PBX  PBC ( 1  4  3  4 0 0)
     nstep                     =           50

     celldm(1)=   1.889726  celldm(2)=   0.000000  celldm(3)=   0.000000
     celldm(4)=   0.000000  celldm(5)=   0.000000  celldm(6)=   0.000000

     crystal axes: (cart. coord. in units of alat)
               a(1) = (   6.376595   0.000000   0.000000 )
               a(2) = (   0.000000   6.376595   0.000000 )
               a(3) = (   0.000000   0.000000   6.376595 )

     reciprocal axes: (cart. coord. in units 2 pi/alat)
               b(1) = (  0.156824  0.000000  0.000000 )
               b(2) = (  0.000000  0.156824  0.000000 )
               b(3) = (  0.000000  0.000000  0.156824 )

     PseudoPot. # 1 for In read from file:
     /home/cbuurma/espresso/pseudo/In.pbe-dn-kjpaw_psl.0.2.2.UPF
     MD5 check sum: f65c3055e4a54d9df9e018248057111d
     Pseudo is Projector augmented-wave + core cor, Zval = 13.0
     Generated using "atomic" code by A. Dal Corso  v.5.0.2 svn rev. 9415
     Shape of augmentation charge: BESSEL
     Using radial grid of 1241 points,  6 beta functions with:
                l(1) =   0
                l(2) =   0
                l(3) =   1
                l(4) =   1
                l(5) =   2
                l(6) =   2
     Q(r) pseudized with 0 coefficients

     PseudoPot. # 2 for As read from file:
     /home/cbuurma/espresso/pseudo/As.pbe-n-kjpaw_psl.0.2.UPF
     MD5 check sum: 92d01df2a4d18767ffee083d23ecaa3e
     Pseudo is Projector augmented-wave + core cor, Zval =  5.0
     Generated using "atomic" code by A. Dal Corso  v.5.0.2 svn rev. 9415
     Shape of augmentation charge: PSQ
     Using radial grid of 1209 points,  4 beta functions with:
                l(1) =   0
                l(2) =   0
                l(3) =   1
                l(4) =   1
     Q(r) pseudized with 0 coefficients

     PseudoPot. # 3 for Sb read from file:
     /home/cbuurma/espresso/pseudo/Sb.pbe-n-kjpaw_psl.0.3.1.UPF
     MD5 check sum: c5cb7030f02f4d8b0fbdef54c2fc837a
     Pseudo is Projector augmented-wave + core cor, Zval =  5.0
     Generated using "atomic" code by A. Dal Corso  v.5.0.99 svn rev. 10869
     Shape of augmentation charge: PSQ
     Using radial grid of 1243 points,  6 beta functions with:
                l(1) =   0
                l(2) =   0
                l(3) =   1
                l(4) =   1
                l(5) =   2
                l(6) =   2
     Q(r) pseudized with 0 coefficients

     atomic species   valence    mass     pseudopotential
        In            13.00   114.81800     In( 1.00)
        As             5.00    74.92200     As( 1.00)
        Sb             5.00   121.67000     Sb( 1.00)

      8 Sym. Ops. (no inversion) found

   Cartesian axes

     site n.     atom                  positions (alat units)
         1           In  tau(   1) = (   4.7820794   1.5945154   1.5945154  )
         2           In  tau(   2) = (   4.7820794   4.7820794   4.7820794  )
         3           In  tau(   3) = (   1.5945154   1.5945154   4.7820794  )
         4           In  tau(   4) = (   1.5945154   4.7820794   1.5945154  )
         5           As  tau(   5) = (   0.0000000   0.0000000   0.0000000  )
         6           Sb  tau(   6) = (   0.0000000   3.1882974   3.1882974  )
         7           As  tau(   7) = (   3.1882974   0.0000000   3.1882974  )
         8           Sb  tau(   8) = (   3.1882974   3.1882974   0.0000000  )

     number of k points=    75  gaussian smearing, width (Ry)=  0.0010
                       cart. coord. in units 2pi/alat
        k(    1) = (   0.0000000   0.0000000   0.0000000), wk =   0.0039063
        k(    2) = (   0.0000000   0.0000000   0.0196029), wk =   0.0156250
        k(    3) = (   0.0000000   0.0000000   0.0392059), wk =   0.0156250
        k(    4) = (   0.0000000   0.0000000   0.0588088), wk =   0.0156250
        k(    5) = (   0.0000000   0.0000000  -0.0784118), wk =   0.0078125
        k(    6) = (   0.0000000   0.0196029   0.0196029), wk =   0.0312500
        k(    7) = (   0.0000000   0.0196029   0.0392059), wk =   0.0312500
        k(    8) = (   0.0000000   0.0196029   0.0588088), wk =   0.0312500
        k(    9) = (   0.0000000   0.0196029  -0.0784118), wk =   0.0156250
        k(   10) = (   0.0000000   0.0392059   0.0392059), wk =   0.0312500
        k(   11) = (   0.0000000   0.0392059   0.0588088), wk =   0.0312500
        k(   12) = (   0.0000000   0.0392059  -0.0784118), wk =   0.0156250
        k(   13) = (   0.0000000   0.0588088   0.0588088), wk =   0.0312500
        k(   14) = (   0.0000000   0.0588088  -0.0784118), wk =   0.0156250
        k(   15) = (   0.0000000  -0.0784118  -0.0784118), wk =   0.0078125
        k(   16) = (   0.0196029   0.0196029   0.0196029), wk =   0.0312500
        k(   17) = (   0.0196029   0.0196029   0.0392059), wk =   0.0625000
        k(   18) = (   0.0196029   0.0196029   0.0588088), wk =   0.0625000
        k(   19) = (   0.0196029   0.0196029  -0.0784118), wk =   0.0312500
        k(   20) = (   0.0196029   0.0392059   0.0392059), wk =   0.0625000
        k(   21) = (   0.0196029   0.0392059   0.0588088), wk =   0.0625000
        k(   22) = (   0.0196029   0.0392059  -0.0784118), wk =   0.0312500
        k(   23) = (   0.0196029   0.0588088   0.0588088), wk =   0.0625000
        k(   24) = (   0.0196029   0.0588088  -0.0784118), wk =   0.0312500
        k(   25) = (   0.0196029  -0.0784118  -0.0784118), wk =   0.0156250
        k(   26) = (   0.0392059   0.0392059   0.0392059), wk =   0.0312500
        k(   27) = (   0.0392059   0.0392059   0.0588088), wk =   0.0625000
        k(   28) = (   0.0392059   0.0392059  -0.0784118), wk =   0.0312500
        k(   29) = (   0.0392059   0.0588088   0.0588088), wk =   0.0625000
        k(   30) = (   0.0392059   0.0588088  -0.0784118), wk =   0.0312500
        k(   31) = (   0.0392059  -0.0784118  -0.0784118), wk =   0.0156250
        k(   32) = (   0.0588088   0.0588088   0.0588088), wk =   0.0312500
        k(   33) = (   0.0588088   0.0588088  -0.0784118), wk =   0.0312500
        k(   34) = (   0.0588088  -0.0784118  -0.0784118), wk =   0.0156250
        k(   35) = (  -0.0784118  -0.0784118  -0.0784118), wk =   0.0039063
        k(   36) = (   0.0000000   0.0196029   0.0000000), wk =   0.0078125
        k(   37) = (   0.0000000   0.0392059   0.0000000), wk =   0.0078125
        k(   38) = (   0.0000000   0.0588088   0.0000000), wk =   0.0078125
        k(   39) = (   0.0000000  -0.0784118   0.0000000), wk =   0.0039063
        k(   40) = (   0.0196029   0.0000000   0.0196029), wk =   0.0156250
        k(   41) = (   0.0000000   0.0392059   0.0196029), wk =   0.0312500
        k(   42) = (   0.0392059   0.0000000   0.0196029), wk =   0.0312500
        k(   43) = (   0.0000000   0.0588088   0.0196029), wk =   0.0312500
        k(   44) = (   0.0588088   0.0000000   0.0196029), wk =   0.0312500
        k(   45) = (   0.0000000  -0.0784118   0.0196029), wk =   0.0156250
        k(   46) = (  -0.0784118   0.0000000   0.0196029), wk =   0.0156250
        k(   47) = (   0.0392059   0.0000000   0.0392059), wk =   0.0156250
        k(   48) = (   0.0000000   0.0588088   0.0392059), wk =   0.0312500
        k(   49) = (   0.0588088   0.0000000   0.0392059), wk =   0.0312500
        k(   50) = (   0.0000000  -0.0784118   0.0392059), wk =   0.0156250
        k(   51) = (  -0.0784118   0.0000000   0.0392059), wk =   0.0156250
        k(   52) = (   0.0588088   0.0000000   0.0588088), wk =   0.0156250
        k(   53) = (   0.0000000  -0.0784118   0.0588088), wk =   0.0156250
        k(   54) = (  -0.0784118   0.0000000   0.0588088), wk =   0.0156250
        k(   55) = (  -0.0784118   0.0000000  -0.0784118), wk =   0.0039063
        k(   56) = (  -0.0196029   0.0392059   0.0196029), wk =   0.0312500
        k(   57) = (  -0.0196029   0.0588088   0.0196029), wk =   0.0312500
        k(   58) = (  -0.0196029  -0.0784118   0.0196029), wk =   0.0156250
        k(   59) = (   0.0392059   0.0196029   0.0392059), wk =   0.0312500
        k(   60) = (  -0.0196029   0.0588088   0.0392059), wk =   0.0625000
        k(   61) = (   0.0588088   0.0196029   0.0392059), wk =   0.0625000
        k(   62) = (  -0.0196029  -0.0784118   0.0392059), wk =   0.0312500
        k(   63) = (  -0.0784118   0.0196029   0.0392059), wk =   0.0312500
        k(   64) = (   0.0588088   0.0196029   0.0588088), wk =   0.0312500
        k(   65) = (  -0.0196029  -0.0784118   0.0588088), wk =   0.0312500
        k(   66) = (  -0.0784118   0.0196029   0.0588088), wk =   0.0312500
        k(   67) = (  -0.0784118   0.0196029  -0.0784118), wk =   0.0078125
        k(   68) = (  -0.0392059   0.0588088   0.0392059), wk =   0.0312500
        k(   69) = (  -0.0392059  -0.0784118   0.0392059), wk =   0.0156250
        k(   70) = (   0.0588088   0.0392059   0.0588088), wk =   0.0312500
        k(   71) = (  -0.0392059  -0.0784118   0.0588088), wk =   0.0312500
        k(   72) = (  -0.0784118   0.0392059   0.0588088), wk =   0.0312500
        k(   73) = (  -0.0784118   0.0392059  -0.0784118), wk =   0.0078125
        k(   74) = (  -0.0588088  -0.0784118   0.0588088), wk =   0.0156250
        k(   75) = (  -0.0784118   0.0588088  -0.0784118), wk =   0.0078125

     Largest allocated arrays     est. size (Mb)     dimensions
     Largest temporary arrays     est. size (Mb)     dimensions

     Check: negative/imaginary core charge=   -0.000012    0.000000

     Initial potential from superposition of free atoms

     starting charge   71.98340, renormalised to   72.00000
     Starting wfc are   52 randomized atomic wfcs
     Checking if some PAW data can be deallocated...

     Self-consistent Calculation

     iteration #  1     ecut=    34.55 Ry     beta=0.70
     Davidson diagonalization with overlap
     ethr =  1.00E-02,  avg # of iterations =  3.0

     Threshold (ethr) on eigenvalues was too large:
     Diagonalizing with lowered threshold

     Davidson diagonalization with overlap
     ethr =  3.00E-04,  avg # of iterations =  4.3

     total energy              =   -2690.38633097 Ry
[...]
     Davidson diagonalization with overlap
     c_bands:  1 eigenvalues not converged
     ethr =  1.77E-06,  avg # of iterations =  4.8

[...]

     enthalpy old            =   -2690.4540753412 Ry
     enthalpy new            =   -2690.4603172602 Ry

     CASE: enthalpy_new < enthalpy_old

[...]

     Threshold (ethr) on eigenvalues was too large:
     Diagonalizing with lowered threshold

     Davidson diagonalization with overlap
     ethr =  6.90E-08,  avg # of iterations =  2.0

[...]

     Total force =     0.000381     Total SCF correction =     0.000008

[...]

     Total force =     0.000083     Total SCF correction =     0.000016
     SCF correction compared to forces is large: reduce conv_thr to get better values

[...]

     number of scf cycles    =   7
     number of bfgs steps    =   6

     enthalpy old            =   -2690.4706438358 Ry
     enthalpy new            =   -2690.4706568859 Ry

     CASE: enthalpy_new < enthalpy_old

     new trust radius        =       0.0049207583 bohr
     new conv_thr            =       0.0000000010 Ry

     new unit-cell volume =   1769.50861 a.u.^3 (   262.21412 Ang^3 )

[...]

ATOMIC_POSITIONS (crystal)
In       0.749990117   0.233529965   0.250009883
In       0.749990117   0.766470035   0.749990117
In       0.250009883   0.233529965   0.749990117
In       0.250009883   0.766470035   0.250009883
As       0.000000000   0.000000000   0.000000000
Sb       0.000000000   0.500000000   0.500000000
As       0.500000000   0.000000000   0.500000000
Sb       0.500000000   0.500000000   0.000000000

     NEW-OLD atomic charge density approx. for the potential

     Check: negative/imaginary core charge=   -0.000013    0.000000
     extrapolated charge   71.88848, renormalised to   72.00000

[...]

     bfgs converged in   8 scf cycles and   7 bfgs steps
     (criteria: energy <  1.0E-04, force <  1.0E-03, cell <  5.0E-01)

     End of BFGS Geometry Optimization

     Final enthalpy =   -2690.4706656294 Ry
Begin final coordinates
     new unit-cell volume =   1769.50861 a.u.^3 (   262.21412 Ang^3 )

CELL_PARAMETERS (alat=  1.88972613)
   6.399746056   0.000000000   0.000000000
   0.000000000   6.402219963   0.000000000
   0.000000000   0.000000000   6.399746056

ATOMIC_POSITIONS (crystal)
In       0.749990117   0.233529965   0.250009883
In       0.749990117   0.766470035   0.749990117
In       0.250009883   0.233529965   0.749990117
In       0.250009883   0.766470035   0.250009883
As       0.000000000   0.000000000   0.000000000
Sb       0.000000000   0.500000000   0.500000000
As       0.500000000   0.000000000   0.500000000
Sb       0.500000000   0.500000000   0.000000000
End final coordinates

     A final scf calculation at the relaxed structure.
     The G-vectors are recalculated for the final unit cell
     Results may differ from those at the preceding step.

     Title:
     InAsBulk_PAW

     bravais-lattice index     =            0
     lattice parameter (alat)  =       1.8897  a.u.
     unit-cell volume          =    1769.5086 (a.u.)^3
     number of atoms/cell      =            8
     number of atomic types    =            3
     number of electrons       =        72.00
     number of Kohn-Sham states=           43
     kinetic-energy cutoff     =      34.5455  Ry
     charge density cutoff     =     138.1818  Ry
     convergence threshold     =      1.0E-09
     mixing beta               =       0.7000
     number of iterations used =            8  plain     mixing
     Exchange-correlation      =  SLA  PW   PBX  PBC ( 1  4  3  4 0 0)

     celldm(1)=   1.889726  celldm(2)=   0.000000  celldm(3)=   0.000000
     celldm(4)=   0.000000  celldm(5)=   0.000000  celldm(6)=   0.000000

     crystal axes: (cart. coord. in units of alat)
               a(1) = (   6.399746   0.000000   0.000000 )
               a(2) = (   0.000000   6.402220   0.000000 )
               a(3) = (   0.000000   0.000000   6.399746 )

     reciprocal axes: (cart. coord. in units 2 pi/alat)
               b(1) = (  0.156256  0.000000  0.000000 )
               b(2) = (  0.000000  0.156196  0.000000 )
               b(3) = (  0.000000  0.000000  0.156256 )

     PseudoPot. # 1 for In read from file:
     /home/cbuurma/espresso/pseudo/In.pbe-dn-kjpaw_psl.0.2.2.UPF
     MD5 check sum: f65c3055e4a54d9df9e018248057111d
     Pseudo is Projector augmented-wave + core cor, Zval = 13.0
     Generated using "atomic" code by A. Dal Corso  v.5.0.2 svn rev. 9415
     Shape of augmentation charge: BESSEL
     Using radial grid of 1241 points,  6 beta functions with:
                l(1) =   0
                l(2) =   0
                l(3) =   1
                l(4) =   1
                l(5) =   2
                l(6) =   2
     Q(r) pseudized with 0 coefficients

     PseudoPot. # 2 for As read from file:
     /home/cbuurma/espresso/pseudo/As.pbe-n-kjpaw_psl.0.2.UPF
     MD5 check sum: 92d01df2a4d18767ffee083d23ecaa3e
     Pseudo is Projector augmented-wave + core cor, Zval =  5.0
     Generated using "atomic" code by A. Dal Corso  v.5.0.2 svn rev. 9415
     Shape of augmentation charge: PSQ
     Using radial grid of 1209 points,  4 beta functions with:
                l(1) =   0
                l(2) =   0
                l(3) =   1
                l(4) =   1
     Q(r) pseudized with 0 coefficients

     PseudoPot. # 3 for Sb read from file:
     /home/cbuurma/espresso/pseudo/Sb.pbe-n-kjpaw_psl.0.3.1.UPF
     MD5 check sum: c5cb7030f02f4d8b0fbdef54c2fc837a
     Pseudo is Projector augmented-wave + core cor, Zval =  5.0
     Generated using "atomic" code by A. Dal Corso  v.5.0.99 svn rev. 10869
     Shape of augmentation charge: PSQ
     Using radial grid of 1243 points,  6 beta functions with:
                l(1) =   0
                l(2) =   0
                l(3) =   1
                l(4) =   1
                l(5) =   2
                l(6) =   2
     Q(r) pseudized with 0 coefficients

     atomic species   valence    mass     pseudopotential
        In            13.00   114.81800     In( 1.00)
        As             5.00    74.92200     As( 1.00)
        Sb             5.00   121.67000     Sb( 1.00)

      8 Sym. Ops. (no inversion) found

   Cartesian axes

     site n.     atom                  positions (alat units)
         1           In  tau(   1) = (   4.7997463   1.4951102   1.5999998  )
         2           In  tau(   2) = (   4.7997463   4.9071098   4.7997463  )
         3           In  tau(   3) = (   1.5999998   1.4951102   4.7997463  )
         4           In  tau(   4) = (   1.5999998   4.9071098   1.5999998  )
         5           As  tau(   5) = (   0.0000000   0.0000000   0.0000000  )
         6           Sb  tau(   6) = (   0.0000000   3.2011100   3.1998730  )
         7           As  tau(   7) = (   3.1998730   0.0000000   3.1998730  )
         8           Sb  tau(   8) = (   3.1998730   3.2011100   0.0000000  )

     number of k points=    75  gaussian smearing, width (Ry)=  0.0010
                       cart. coord. in units 2pi/alat
        k(    1) = (   0.0000000   0.0000000   0.0000000), wk =   0.0039063
        k(    2) = (   0.0000000   0.0000000   0.0195320), wk =   0.0156250
        k(    3) = (   0.0000000   0.0000000   0.0390641), wk =   0.0156250
        k(    4) = (   0.0000000   0.0000000   0.0585961), wk =   0.0156250
        k(    5) = (   0.0000000   0.0000000  -0.0781281), wk =   0.0078125
        k(    6) = (   0.0000000   0.0195245   0.0195320), wk =   0.0312500
        k(    7) = (   0.0000000   0.0195245   0.0390641), wk =   0.0312500
        k(    8) = (   0.0000000   0.0195245   0.0585961), wk =   0.0312500
        k(    9) = (   0.0000000   0.0195245  -0.0781281), wk =   0.0156250
        k(   10) = (   0.0000000   0.0390490   0.0390641), wk =   0.0312500
        k(   11) = (   0.0000000   0.0390490   0.0585961), wk =   0.0312500
        k(   12) = (   0.0000000   0.0390490  -0.0781281), wk =   0.0156250
        k(   13) = (   0.0000000   0.0585734   0.0585961), wk =   0.0312500
        k(   14) = (   0.0000000   0.0585734  -0.0781281), wk =   0.0156250
        k(   15) = (   0.0000000  -0.0780979  -0.0781281), wk =   0.0078125
        k(   16) = (   0.0195320   0.0195245   0.0195320), wk =   0.0312500
        k(   17) = (   0.0195320   0.0195245   0.0390641), wk =   0.0625000
        k(   18) = (   0.0195320   0.0195245   0.0585961), wk =   0.0625000
        k(   19) = (   0.0195320   0.0195245  -0.0781281), wk =   0.0312500
        k(   20) = (   0.0195320   0.0390490   0.0390641), wk =   0.0625000
        k(   21) = (   0.0195320   0.0390490   0.0585961), wk =   0.0625000
        k(   22) = (   0.0195320   0.0390490  -0.0781281), wk =   0.0312500
        k(   23) = (   0.0195320   0.0585734   0.0585961), wk =   0.0625000
        k(   24) = (   0.0195320   0.0585734  -0.0781281), wk =   0.0312500
        k(   25) = (   0.0195320  -0.0780979  -0.0781281), wk =   0.0156250
        k(   26) = (   0.0390641   0.0390490   0.0390641), wk =   0.0312500
        k(   27) = (   0.0390641   0.0390490   0.0585961), wk =   0.0625000
        k(   28) = (   0.0390641   0.0390490  -0.0781281), wk =   0.0312500
        k(   29) = (   0.0390641   0.0585734   0.0585961), wk =   0.0625000
        k(   30) = (   0.0390641   0.0585734  -0.0781281), wk =   0.0312500
        k(   31) = (   0.0390641  -0.0780979  -0.0781281), wk =   0.0156250
        k(   32) = (   0.0585961   0.0585734   0.0585961), wk =   0.0312500
        k(   33) = (   0.0585961   0.0585734  -0.0781281), wk =   0.0312500
        k(   34) = (   0.0585961  -0.0780979  -0.0781281), wk =   0.0156250
        k(   35) = (  -0.0781281  -0.0780979  -0.0781281), wk =   0.0039063
        k(   36) = (   0.0000000   0.0195245   0.0000000), wk =   0.0078125
        k(   37) = (   0.0000000   0.0390490   0.0000000), wk =   0.0078125
        k(   38) = (   0.0000000   0.0585734   0.0000000), wk =   0.0078125
        k(   39) = (   0.0000000  -0.0780979   0.0000000), wk =   0.0039063
        k(   40) = (   0.0195320   0.0000000   0.0195320), wk =   0.0156250
        k(   41) = (   0.0000000   0.0390490   0.0195320), wk =   0.0312500
        k(   42) = (   0.0390641   0.0000000   0.0195320), wk =   0.0312500
        k(   43) = (   0.0000000   0.0585734   0.0195320), wk =   0.0312500
        k(   44) = (   0.0585961   0.0000000   0.0195320), wk =   0.0312500
        k(   45) = (   0.0000000  -0.0780979   0.0195320), wk =   0.0156250
        k(   46) = (  -0.0781281   0.0000000   0.0195320), wk =   0.0156250
        k(   47) = (   0.0390641   0.0000000   0.0390641), wk =   0.0156250
        k(   48) = (   0.0000000   0.0585734   0.0390641), wk =   0.0312500
        k(   49) = (   0.0585961   0.0000000   0.0390641), wk =   0.0312500
        k(   50) = (   0.0000000  -0.0780979   0.0390641), wk =   0.0156250
        k(   51) = (  -0.0781281   0.0000000   0.0390641), wk =   0.0156250
        k(   52) = (   0.0585961   0.0000000   0.0585961), wk =   0.0156250
        k(   53) = (   0.0000000  -0.0780979   0.0585961), wk =   0.0156250
        k(   54) = (  -0.0781281   0.0000000   0.0585961), wk =   0.0156250
        k(   55) = (  -0.0781281   0.0000000  -0.0781281), wk =   0.0039063
        k(   56) = (  -0.0195320   0.0390490   0.0195320), wk =   0.0312500
        k(   57) = (  -0.0195320   0.0585734   0.0195320), wk =   0.0312500
        k(   58) = (  -0.0195320  -0.0780979   0.0195320), wk =   0.0156250
        k(   59) = (   0.0390641   0.0195245   0.0390641), wk =   0.0312500
        k(   60) = (  -0.0195320   0.0585734   0.0390641), wk =   0.0625000
        k(   61) = (   0.0585961   0.0195245   0.0390641), wk =   0.0625000
        k(   62) = (  -0.0195320  -0.0780979   0.0390641), wk =   0.0312500
        k(   63) = (  -0.0781281   0.0195245   0.0390641), wk =   0.0312500
        k(   64) = (   0.0585961   0.0195245   0.0585961), wk =   0.0312500
        k(   65) = (  -0.0195320  -0.0780979   0.0585961), wk =   0.0312500
        k(   66) = (  -0.0781281   0.0195245   0.0585961), wk =   0.0312500
        k(   67) = (  -0.0781281   0.0195245  -0.0781281), wk =   0.0078125
        k(   68) = (  -0.0390641   0.0585734   0.0390641), wk =   0.0312500
        k(   69) = (  -0.0390641  -0.0780979   0.0390641), wk =   0.0156250
        k(   70) = (   0.0585961   0.0390490   0.0585961), wk =   0.0312500
        k(   71) = (  -0.0390641  -0.0780979   0.0585961), wk =   0.0312500
        k(   72) = (  -0.0781281   0.0390490   0.0585961), wk =   0.0312500
        k(   73) = (  -0.0781281   0.0390490  -0.0781281), wk =   0.0078125
        k(   74) = (  -0.0585961  -0.0780979   0.0585961), wk =   0.0156250
        k(   75) = (  -0.0781281   0.0585734  -0.0781281), wk =   0.0078125

     Largest allocated arrays     est. size (Mb)     dimensions
     Largest temporary arrays     est. size (Mb)     dimensions

     Check: negative/imaginary core charge=   -0.000013    0.000000

     Initial potential from superposition of free atoms

     starting charge   71.98340, renormalised to   72.00000
     Starting wfc are   52 randomized atomic wfcs
     Checking if some PAW data can be deallocated...

     Self-consistent Calculation

     iteration #  1     ecut=    34.55 Ry     beta=0.70
     Davidson diagonalization with overlap
     c_bands:  2 eigenvalues not converged
     c_bands:  3 eigenvalues not converged
     c_bands:  2 eigenvalues not converged
     c_bands:  1 eigenvalues not converged
     c_bands:  1 eigenvalues not converged
     c_bands:  1 eigenvalues not converged
     c_bands:  1 eigenvalues not converged
     c_bands:  1 eigenvalues not converged
     c_bands:  1 eigenvalues not converged
     c_bands:  1 eigenvalues not converged
     c_bands:  1 eigenvalues not converged
     c_bands:  1 eigenvalues not converged
     c_bands:  1 eigenvalues not converged
     c_bands:  1 eigenvalues not converged
     ethr =  1.00E-06,  avg # of iterations = 14.8

[...]

     total energy              =   -2690.47124223 Ry
     Harris-Foulkes estimate   =   -2690.47124224 Ry
     estimated scf accuracy    <          6.9E-09 Ry

     iteration # 10     ecut=    34.55 Ry     beta=0.70
     Davidson diagonalization with overlap
     ethr =  9.63E-12,  avg # of iterations =  2.1

     End of self-consistent calculation

[...]

          k = 0.0586 0.0390 0.0586 (  6049 PWs)   bands (ev):

[...]

          k =-0.0781 0.0586-0.0781 (  6028 PWs)   bands (ev):

    -8.6645  -8.6644  -8.6310  -8.6310  -8.5737  -8.5736  -8.5726  -8.5726
    -8.5607  -8.5607  -8.5567  -8.5567  -8.5066  -8.5066  -8.4995  -8.4995
    -8.4981  -8.4981  -8.4978  -8.4978  -4.5484  -4.5478  -3.2790  -3.2790
     0.3695   0.3695   0.5141   0.5143   4.4880   4.4880   4.5011   4.5018
     4.5475   4.5475   5.2246   5.2249   6.3675   6.3678   7.0396   7.0396
     9.8007   9.8008   9.9252

     the Fermi energy is     5.8238 ev

!    total energy              =   -2690.47124223 Ry
     Harris-Foulkes estimate   =   -2690.47124223 Ry
     estimated scf accuracy    <          2.5E-10 Ry

     total all-electron energy =    -82024.267787 Ry

     The total energy is the sum of the following terms:

     one-electron contribution =    -244.57514401 Ry
     hartree contribution      =     155.76686495 Ry
     xc contribution           =    -217.65503772 Ry
     ewald contribution        =    -328.01407765 Ry
     one-center paw contrib.   =   -2055.99384560 Ry
     smearing contrib. (-TS)   =      -0.00000220 Ry

     convergence has been achieved in  10 iterations

     Forces acting on atoms (Ry/au):

     atom    1 type  1   force =     0.00000475    0.00000539   -0.00000475
     atom    2 type  1   force =     0.00000475   -0.00000539    0.00000475
     atom    3 type  1   force =    -0.00000475    0.00000539    0.00000475
     atom    4 type  1   force =    -0.00000475   -0.00000539   -0.00000475
     atom    5 type  2   force =     0.00000000    0.00000000    0.00000000
     atom    6 type  3   force =     0.00000000    0.00000000    0.00000000
     atom    7 type  2   force =     0.00000000    0.00000000    0.00000000
     atom    8 type  3   force =     0.00000000    0.00000000    0.00000000

     Total force =     0.000017     Total SCF correction =     0.000040
     SCF correction compared to forces is large: reduce conv_thr to get better values

     entering subroutine stress ...

          total   stress  (Ry/bohr**3)                   (kbar)     P=   -0.26
  -0.00000246   0.00000000   0.00000000         -0.36      0.00      0.00
   0.00000000  -0.00000032   0.00000000          0.00     -0.05      0.00
   0.00000000   0.00000000  -0.00000246          0.00      0.00     -0.36

     General routines

     Parallel routines

   This run was terminated on:  17:48: 8  30Nov2016

   JOB DONE.